(benchmark gametime
:status unknown
:logic QF_AUFBV
:extrafuns ((gtINDEX35  BitVec[32]))
:extrafuns ((gtFIELD__bitsForTID0__gtAGG____anonstruct_D_Work_4  Array[32:32]))
:extrafuns ((gtINDEX36  BitVec[32]))
:extrafuns ((gtAGG__rtDWork  BitVec[32]))
:extrafuns ((gtINDEX33  BitVec[32]))
:extrafuns ((gtINDEX34  BitVec[32]))
:extrafuns ((gtINDEX31  BitVec[32]))
:extrafuns ((gtINDEX32  BitVec[32]))
:extrafuns ((gtINDEX29  BitVec[32]))
:extrafuns ((gtINDEX30  BitVec[32]))
:extrafuns ((gtINDEX27  BitVec[32]))
:extrafuns ((gtINDEX28  BitVec[32]))
:extrafuns ((gtINDEX25  BitVec[32]))
:extrafuns ((gtINDEX26  BitVec[32]))
:extrafuns ((gtINDEX23  BitVec[32]))
:extrafuns ((gtINDEX24  BitVec[32]))
:extrafuns ((gtINDEX21  BitVec[32]))
:extrafuns ((gtINDEX22  BitVec[32]))
:extrafuns ((gtINDEX19  BitVec[32]))
:extrafuns ((gtINDEX20  BitVec[32]))
:extrafuns ((gtINDEX17  BitVec[32]))
:extrafuns ((gtINDEX18  BitVec[32]))
:extrafuns ((gtINDEX15  BitVec[32]))
:extrafuns ((gtINDEX16  BitVec[32]))
:extrafuns ((gtINDEX14  BitVec[32]))
:extrafuns ((gtINDEX13  BitVec[32]))
:extrafuns ((gtINDEX12  BitVec[32]))
:extrafuns ((gtINDEX11  BitVec[32]))
:extrafuns ((gtINDEX10  BitVec[32]))
:extrafuns ((gtINDEX8  BitVec[32]))
:extrafuns ((gtINDEX9  BitVec[32]))
:extrafuns ((gtINDEX7  BitVec[32]))
:extrafuns ((gtINDEX6  BitVec[32]))
:extrafuns ((gtINDEX4  BitVec[32]))
:extrafuns ((gtINDEX5  BitVec[32]))
:extrafuns ((gtINDEX2  BitVec[32]))
:extrafuns ((gtINDEX3  BitVec[32]))
:extrafuns ((gtINDEX0  BitVec[32]))
:extrafuns ((gtINDEX1  BitVec[32]))
:extrafuns ((gtFIELD__is_active_Eng__gtAGG____anonstruct_bitsForTID0_5  Array[32:1]))
:extrafuns ((gtFIELD__is_active_PURI__gtAGG____anonstruct_bitsForTID0_5  Array[32:1]))
:extrafuns ((gtFIELD__is_PVRP__gtAGG____anonstruct_bitsForTID0_5  Array[32:2]))
:extrafuns ((gtFIELD__is_PVRP__gtAGG____anonstruct_bitsForTID0_5_1_  Array[32:2]))
:extrafuns ((gtFIELD__is_active_PVRP__gtAGG____anonstruct_bitsForTID0_5  Array[32:1]))
:extrafuns ((gtFIELD__is_active_PPVARP__gtAGG____anonstruct_bitsForTID0_5  Array[32:1]))
:extrafuns ((gtFIELD__is_active_PLRI__gtAGG____anonstruct_bitsForTID0_5  Array[32:1]))
:extrafuns ((gtFIELD__is_PAVI__gtAGG____anonstruct_bitsForTID0_5  Array[32:3]))
:extrafuns ((gtFIELD__is_PAVI__gtAGG____anonstruct_bitsForTID0_5_1_  Array[32:3]))
:extrafuns ((sfEvent_  BitVec[32]))
:extrafuns ((gtFIELD__URIex__gtAGG____anonstruct_bitsForTID0_5  Array[32:1]))
:extrafuns ((gtFIELD__comm__gtAGG____anonstruct_D_Work_4  Array[32:32]))
:extrafuns ((gtFIELD__sent__gtAGG____anonstruct_D_Work_4  Array[32:32]))
:extrafuns ((gtFIELD__AVId__gtAGG____anonstruct_D_Work_4  Array[32:32]))
:extrafuns ((gtFIELD__n_t__gtAGG____anonstruct_D_Work_4  Array[32:32]))
:extrafuns ((gtFIELD__temporalCounter_i1__gtAGG____anonstruct_D_Work_4  Array[32:32]))
:extrafuns ((gtFIELD__is_active_PAVI__gtAGG____anonstruct_bitsForTID0_5  Array[32:1]))
:extrapreds ((constraint58 ))
:extrapreds ((constraint57 ))
:extrapreds ((constraint56 ))
:extrapreds ((constraint55 ))
:extrapreds ((constraint54 ))
:extrapreds ((constraint53 ))
:extrapreds ((constraint52 ))
:extrapreds ((constraint51 ))
:extrapreds ((constraint50 ))
:extrapreds ((constraint49 ))
:extrapreds ((constraint48 ))
:extrapreds ((constraint47 ))
:extrapreds ((constraint46 ))
:extrapreds ((constraint45 ))
:extrapreds ((constraint44 ))
:extrapreds ((constraint43 ))
:extrapreds ((constraint42 ))
:extrapreds ((constraint41 ))
:extrapreds ((constraint40 ))
:extrapreds ((constraint39 ))
:extrapreds ((constraint38 ))
:extrapreds ((constraint37 ))
:extrapreds ((constraint36 ))
:extrapreds ((constraint35 ))
:extrapreds ((constraint34 ))
:extrapreds ((constraint33 ))
:extrapreds ((constraint32 ))
:extrapreds ((constraint31 ))
:extrapreds ((constraint30 ))
:extrapreds ((constraint29 ))
:extrapreds ((constraint28 ))
:extrapreds ((constraint27 ))
:extrapreds ((constraint26 ))
:extrapreds ((constraint25 ))
:extrapreds ((constraint24 ))
:extrapreds ((constraint23 ))
:extrapreds ((constraint22 ))
:extrapreds ((constraint21 ))
:extrapreds ((constraint20 ))
:extrapreds ((constraint19 ))
:extrapreds ((constraint18 ))
:extrapreds ((constraint17 ))
:extrapreds ((constraint16 ))
:extrapreds ((constraint15 ))
:extrapreds ((constraint14 ))
:extrapreds ((constraint13 ))
:extrapreds ((constraint12 ))
:extrapreds ((constraint11 ))
:extrapreds ((constraint10 ))
:extrapreds ((constraint9 ))
:extrapreds ((constraint8 ))
:extrapreds ((constraint7 ))
:extrapreds ((constraint6 ))
:extrapreds ((constraint5 ))
:extrapreds ((constraint4 ))
:extrapreds ((constraint3 ))
:extrapreds ((constraint2 ))
:extrapreds ((constraint1 ))
:extrapreds ((constraint0 ))
:formula
(flet ($x332 (and constraint0 constraint1 constraint2 constraint3 constraint4 constraint5 constraint6 constraint7 constraint8 constraint9 constraint10 constraint11 constraint12 constraint13 constraint14 constraint15 constraint16 constraint17 constraint18 constraint19 constraint20 constraint21 constraint22 constraint23 constraint24 constraint25 constraint26 constraint27 constraint28 constraint29 constraint30 constraint31 constraint32 constraint33 constraint34 constraint35 constraint36 constraint37 constraint38 constraint39 constraint40 constraint41 constraint42 constraint43 constraint44 constraint45 constraint46 constraint47 constraint48 constraint49 constraint50 constraint51 constraint52 constraint53 constraint54 constraint55 constraint56 constraint57 constraint58))
(flet ($x212 (= gtINDEX36 (select gtFIELD__bitsForTID0__gtAGG____anonstruct_D_Work_4 gtINDEX35)))
(flet ($x208 (= gtINDEX34 (select gtFIELD__bitsForTID0__gtAGG____anonstruct_D_Work_4 gtINDEX33)))
(flet ($x204 (= gtINDEX32 (select gtFIELD__bitsForTID0__gtAGG____anonstruct_D_Work_4 gtINDEX31)))
(flet ($x200 (= gtINDEX30 (select gtFIELD__bitsForTID0__gtAGG____anonstruct_D_Work_4 gtINDEX29)))
(flet ($x196 (= gtINDEX28 (select gtFIELD__bitsForTID0__gtAGG____anonstruct_D_Work_4 gtINDEX27)))
(flet ($x192 (= gtINDEX26 (select gtFIELD__bitsForTID0__gtAGG____anonstruct_D_Work_4 gtINDEX25)))
(flet ($x188 (= gtINDEX24 (select gtFIELD__bitsForTID0__gtAGG____anonstruct_D_Work_4 gtINDEX23)))
(flet ($x184 (= gtINDEX22 (select gtFIELD__bitsForTID0__gtAGG____anonstruct_D_Work_4 gtINDEX21)))
(flet ($x180 (= gtINDEX20 (select gtFIELD__bitsForTID0__gtAGG____anonstruct_D_Work_4 gtINDEX19)))
(flet ($x176 (= gtINDEX18 (select gtFIELD__bitsForTID0__gtAGG____anonstruct_D_Work_4 gtINDEX17)))
(flet ($x172 (= gtINDEX16 (select gtFIELD__bitsForTID0__gtAGG____anonstruct_D_Work_4 gtINDEX15)))
(flet ($x163 (= gtINDEX9 (select gtFIELD__bitsForTID0__gtAGG____anonstruct_D_Work_4 gtINDEX8)))
(flet ($x157 (= gtINDEX5 (select gtFIELD__bitsForTID0__gtAGG____anonstruct_D_Work_4 gtINDEX4)))
(flet ($x153 (= gtINDEX3 (select gtFIELD__bitsForTID0__gtAGG____anonstruct_D_Work_4 gtINDEX2)))
(flet ($x149 (= gtINDEX1 (select gtFIELD__bitsForTID0__gtAGG____anonstruct_D_Work_4 gtINDEX0)))
(let (?x140 (select gtFIELD__is_active_Eng__gtAGG____anonstruct_bitsForTID0_5 gtINDEX36))
(let (?x134 (select gtFIELD__is_active_PURI__gtAGG____anonstruct_bitsForTID0_5 gtINDEX34))
(let (?x131 (store gtFIELD__is_PVRP__gtAGG____anonstruct_bitsForTID0_5 gtINDEX32 (extract[1:0] bv0[32])))
(flet ($x252 (iff constraint19 (= gtFIELD__is_PVRP__gtAGG____anonstruct_bitsForTID0_5_1_ ?x131)))
(let (?x124 (select gtFIELD__is_PVRP__gtAGG____anonstruct_bitsForTID0_5 gtINDEX30))
(let (?x119 (select gtFIELD__is_PVRP__gtAGG____anonstruct_bitsForTID0_5 gtINDEX28))
(let (?x114 (select gtFIELD__is_PVRP__gtAGG____anonstruct_bitsForTID0_5 gtINDEX26))
(let (?x109 (select gtFIELD__is_active_PVRP__gtAGG____anonstruct_bitsForTID0_5 gtINDEX24))
(let (?x103 (select gtFIELD__is_active_PPVARP__gtAGG____anonstruct_bitsForTID0_5 gtINDEX22))
(let (?x97 (select gtFIELD__is_active_PLRI__gtAGG____anonstruct_bitsForTID0_5 gtINDEX20))
(let (?x94 (store gtFIELD__is_PAVI__gtAGG____anonstruct_bitsForTID0_5 gtINDEX18 (extract[2:0] bv1[32])))
(flet ($x238 (iff constraint12 (= gtFIELD__is_PAVI__gtAGG____anonstruct_bitsForTID0_5_1_ ?x94)))
(let (?x87 (zero_extend[31] (select gtFIELD__URIex__gtAGG____anonstruct_bitsForTID0_5 gtINDEX16)))
(flet ($x84 (= (select gtFIELD__comm__gtAGG____anonstruct_D_Work_4 gtINDEX14) bv0[32]))
(flet ($x81 (= (select gtFIELD__sent__gtAGG____anonstruct_D_Work_4 gtINDEX13) bv0[32]))
(let (?x76 (bvadd (select gtFIELD__n_t__gtAGG____anonstruct_D_Work_4 gtINDEX11) (select gtFIELD__AVId__gtAGG____anonstruct_D_Work_4 gtINDEX12)))
(let (?x71 (select gtFIELD__temporalCounter_i1__gtAGG____anonstruct_D_Work_4 gtINDEX10))
(let (?x68 (zero_extend[31] (select gtFIELD__URIex__gtAGG____anonstruct_bitsForTID0_5 gtINDEX9)))
(flet ($x65 (= (select gtFIELD__comm__gtAGG____anonstruct_D_Work_4 gtINDEX7) bv0[32]))
(flet ($x62 (= (select gtFIELD__sent__gtAGG____anonstruct_D_Work_4 gtINDEX6) bv0[32]))
(let (?x57 (zero_extend[29] (select gtFIELD__is_PAVI__gtAGG____anonstruct_bitsForTID0_5 gtINDEX5)))
(let (?x51 (zero_extend[29] (select gtFIELD__is_PAVI__gtAGG____anonstruct_bitsForTID0_5 gtINDEX3)))
(let (?x44 (select gtFIELD__is_active_PAVI__gtAGG____anonstruct_bitsForTID0_5 gtINDEX1))
(flet ($x331 (and (iff constraint0 (not (= sfEvent_ bv8[32]))) (iff constraint1 (not (= (zero_extend[31] ?x44) bv0[32]))) (iff constraint2 (not (= ?x51 bv1[32]))) (iff constraint3 (= ?x57 bv2[32])) (iff constraint4 $x62) (iff constraint5 $x65) (iff constraint6 (= ?x68 bv0[32])) (iff constraint7 (not (= ?x71 ?x76))) (iff constraint8 $x81) (iff constraint9 $x84) (iff constraint10 (not (= ?x87 bv1[32]))) (iff constraint11 (= sfEvent_ bv5[32])) $x238 (iff constraint13 (not (not (= (zero_extend[31] ?x97) bv0[32])))) (iff constraint14 (not (not (= (zero_extend[31] ?x103) bv0[32])))) (iff constraint15 (not (= (zero_extend[31] ?x109) bv0[32]))) (iff constraint16 (not (= (zero_extend[30] ?x114) bv1[32]))) (iff constraint17 (not (= (zero_extend[30] ?x119) bv2[32]))) (iff constraint18 (not (= (zero_extend[30] ?x124) bv3[32]))) $x252 (iff constraint20 (not (not (= (zero_extend[31] ?x134) bv0[32])))) (iff constraint21 (not (not (= (zero_extend[31] ?x140) bv0[32])))) (iff constraint22 (= gtINDEX0 gtAGG__rtDWork)) (iff constraint23 $x149) (iff constraint24 (= gtINDEX2 gtAGG__rtDWork)) (iff constraint25 $x153) (iff constraint26 (= gtINDEX4 gtAGG__rtDWork)) (iff constraint27 $x157) (iff constraint28 (= gtINDEX6 gtAGG__rtDWork)) (iff constraint29 (= gtINDEX7 gtAGG__rtDWork)) (iff constraint30 (= gtINDEX8 gtAGG__rtDWork)) (iff constraint31 $x163) (iff constraint32 (= gtINDEX10 gtAGG__rtDWork)) (iff constraint33 (= gtINDEX11 gtAGG__rtDWork)) (iff constraint34 (= gtINDEX12 gtAGG__rtDWork)) (iff constraint35 (= gtINDEX13 gtAGG__rtDWork)) (iff constraint36 (= gtINDEX14 gtAGG__rtDWork)) (iff constraint37 (= gtINDEX15 gtAGG__rtDWork)) (iff constraint38 $x172) (iff constraint39 (= gtINDEX17 gtAGG__rtDWork)) (iff constraint40 $x176) (iff constraint41 (= gtINDEX19 gtAGG__rtDWork)) (iff constraint42 $x180) (iff constraint43 (= gtINDEX21 gtAGG__rtDWork)) (iff constraint44 $x184) (iff constraint45 (= gtINDEX23 gtAGG__rtDWork)) (iff constraint46 $x188) (iff constraint47 (= gtINDEX25 gtAGG__rtDWork)) (iff constraint48 $x192) (iff constraint49 (= gtINDEX27 gtAGG__rtDWork)) (iff constraint50 $x196) (iff constraint51 (= gtINDEX29 gtAGG__rtDWork)) (iff constraint52 $x200) (iff constraint53 (= gtINDEX31 gtAGG__rtDWork)) (iff constraint54 $x204) (iff constraint55 (= gtINDEX33 gtAGG__rtDWork)) (iff constraint56 $x208) (iff constraint57 (= gtINDEX35 gtAGG__rtDWork)) (iff constraint58 $x212)))
(and $x331 $x332)))))))))))))))))))))))))))))))))))))))))
)
